!ExtOpt NEB-TS 
#FREQ NUMFREQ

%method
  ProgExt "/home/vitamin/Python/orca-external-tools/gxtb.py"
end

%geom 
 MaxIter 3000
end

%NEB
  #Restart_ALLXYZFile "interpolated.allxyz"
  #nImages 15
  preopt true
  NEB_END_XYZFILE "final.xyz"
  NEB_TS_XYZFILE "ts.xyz"
END

*XYZFILE 0 1 start.xyz
