# for rection barriers range-separated hybride
!wB97M-d4 def2-QZVPPD NEB-TS PAL8 CPCM(chloroform)

%Geom maxiter 500 end
%neb 
 NImages 8  
 PreOpt true
#NEB_TS_XYZFILE  "ts.xyz"
 NEB_END_XYZFILE "final.xyz" 
END

* XYZfile 0 1 start.xyz
