! PBE0 RI RIJK D4 def2-TZVP def2/JK NEB-TS PAL8 CPCM(chloroform)

%Geom maxiter 500 end
%neb 
 NImages 8  
 PreOpt true
#NEB_TS_XYZFILE  "ts.xyz"
 NEB_END_XYZFILE "end.xyz" 
END

%maxcore 6000
* XYZfile 0 1 start.xyz
