#! B97-3c opt freq miniprint
! r2SCAN-3c  opt miniprint PAL8 CPCM(chloroform) noautostart 
%maxcore 6000

* xyzfile 0 1 [xyzfile]
