! PBE0 RI RIJK D4 def2-TZVP def2/JK PAL8 IRC

%irc
  Maxiter 200
  Printlevel 1
  InitHess Read
  Hess_Filename "ts.hess"
end

%maxcore 6000
* xyzFile 0 1 ts.xyz
