!PBE0 RI RIJK D4 def2-TZVP def2/JK PAL8 IRC
#SlowConv 
#!OptTS
#!TRAH 
%maxcore 6000

%irc
  Maxiter 20
  Printlevel 1
#  InitHess Read
#  Hess_Filename "ts.hess"
end

* xyzFile 0 1 ts.xyz
