! wB97M-d4 def2-QZVPPD PAL8 IRC

%irc
  Maxiter 200
  Printlevel 1
  InitHess Read
  Hess_Filename "ts.hess"
end

%maxcore 6000
* xyzFile 0 1 ts.xyz
