! xtb2 PAL8 ALPB(chcl3) IRC 

%irc
  Maxiter 200
  Printlevel 1
  InitHess Read
  Hess_Filename "ts.hess"
end

%maxcore 4000
* xyzFile 0 1 ts.xyz
