! PBE0 RI RIJK D4 def2-TZVP def2/JK PAL8 SlowConv
! OptTS
! CPCM(chloroform)

%geom
Calc_Hess true
maxiter 500
end

%maxcore 6000
* xyzFile 0 1 ts.xyz
