!wB97X-3c PAL8 SlowConv
!OptTS
!TRAH CPCM(chloroform)

%maxcore 3000
* xyzFile 0 1 ts.xyz
