! wB97X-3c PAL8 SlowConv
! OptTS 
! CPCM(chloroform)

%geom
Calc_Hess true
maxiter 500
end

%maxcore 6000
* xyzFile 0 1 ts.xyz
