! wb97x-d4
! def2-svp
! def2/J RIJCOSX
! DEFGRID2
! scfconv7
! smallprint printgap noloewdin
! NOSOSCF
%MaxCore 8000
%output
       print[P_BondOrder_M] 1
       print[P_Mayer] 1
       print[P_basis] 2
end
%pal
    nprocs 8
end
! CPCM(chloroform)
*xyz 0 1
C    1.8417278125   0.0000071191  -0.0747088409
C    1.0540956468  -1.2499181470   0.3009236581
C   -0.3047449654  -1.2643743237  -0.4041045112
H    0.8969119304  -1.2696718203   1.3816456045
H    1.6138642451  -2.1467693053   0.0281160106
C   -1.0735850182  -0.0000081838  -0.0981327049
H   -0.8930815822  -2.1296797370  -0.0952422595
H   -0.1515971233  -1.3161424584  -1.4849847233
C   -0.3047925117   1.2643728988  -0.4040821960
C    1.0540887456   1.2499166818   0.3009022872
H   -0.8931407093   2.1296796984  -0.0951874243
H   -0.1515949910   1.3161821389  -1.4849582877
H    0.8969633883   1.2696028044   1.3816635840
H    1.6139124279   2.1467779214   0.0281871605
H    2.0398397689   0.0001477281  -1.1492339508
H    2.8029350399   0.0000207115   0.4429246147
O   -2.1914917800  -0.0000063349   0.3506307258
*
%eprnmr
 Nuclei = all C { shift }
 origin giao
 giao_2el giao_2el_same_as_scf
 giao_1el giao_1el_analytic
end
